 vasp.5.4.4.18Apr17-6-g9f103f2a35 (build Apr 27 2022 17:52:45) complex

 executed on             LinuxIFC date 2022.06.17  19:17:52

 INCAR:
 POTCAR:    PAW_PBE Cu 22Jun2005
 POTCAR:    PAW_PBE Cu 22Jun2005
   VRHFIN =Cu: d10 p1

   TITEL  = PAW_PBE Cu 22Jun2005
   POMASS =   63.546; ZVAL   =   11.000    mass and valenz
   ENMAX  =  295.446; ENMIN  =  221.585 eV

 Optimization of the real space projectors (new method)

 maximal supplied QI-value         = 16.25
 optimisation between [QCUT,QGAM] = [ 12.51, 25.03] = [ 43.85,175.40] Ry
 Optimized for a Real-space Cutoff    1.39 Angstroem

   l    n(q)    QCUT    max X(q) W(low)/X(q) W(high)/X(q)  e(spline)
   2      9    12.514     4.610    0.10E-03    0.14E-03    0.43E-06
   2      9    12.514     8.522    0.16E-03    0.23E-03    0.74E-06
   0     10    12.514    51.609    0.65E-04    0.60E-04    0.49E-06
   0     10    12.514    27.747    0.58E-04    0.56E-04    0.46E-06
   1     10    12.514    20.408    0.12E-03    0.71E-04    0.18E-06
   1     10    12.514    13.425    0.11E-03    0.64E-04    0.16E-06
  PAW_PBE Cu 22Jun2005                  :

 POSCAR: Cu.01.atoms2/POSCAR.7
  positions in direct lattice
 exchange correlation table for  LEXCH =        8
   RHO(1)=    0.500       N(1)  =     2000
   RHO(2)=  100.500       N(2)  =     4000

 VTST: version 3.2, (02/03/18)

 CHAIN: initializing optimizer

 OPT: Using VASP Dynamics algorithm
 CHAIN: Read ICHAIN            0

 POSCAR: Cu.01.atoms2/POSCAR.7
  positions in direct lattice

 ion  position               nearest neighbor table
   1  0.000  0.000  0.000-   2 2.63   2 2.63   2 2.73   2 2.73
   2  0.500  0.500  0.500-   1 2.63   1 2.63   1 2.73   1 2.73

  LATTYP: Found a triclinic cell.
 ALAT       =     4.5126066686
 B/A-ratio  =     0.6395378603
 C/A-ratio  =     1.5542469639
 COS(alpha) =     0.0034906025
 COS(beta)  =     0.6264221821
 COS(gamma) =     0.6865177674

  Lattice vectors:

 A1 = (  -3.9139713056,   2.1801852438,   0.5396664408)
 A2 = (  -0.7582369901,   2.7798607276,  -0.1623200584)
 A3 = (  -6.3983059306,  -1.8482224412,  -2.1995035476)

Analysis of symmetry for initial positions (statically):
 Subroutine PRICEL returns following result:

[...]

   2 primitive cells build up your supercell.

 Routine SETGRP: Setting up the symmetry group for a
 triclinic supercell.

 Subroutine GETGRP returns: Found  2 space group operations
 (whereof  2 operations were pure point group operations)
 out of a pool of  2 trial point group operations.

The static configuration has the point symmetry S_2 .

Analysis of symmetry for dynamics (positions and initial velocities):
 Subroutine PRICEL returns following result:

  LATTYP: Found a triclinic cell.
 ALAT       =     2.7341835724
 B/A-ratio  =     1.5480903464
 C/A-ratio  =     2.0278738545
 COS(alpha) =     0.0072833282
 COS(beta)  =     0.6194510895
 COS(gamma) =     0.7432224726

  Lattice vectors:

 A1 = (  -1.2421673125,  -2.0142038425,  -1.3695849942)
 A2 = (  -2.3974973254,  -3.3795362114,   0.8643065576)
 A3 = (  -2.0872416022,   0.1167854115,  -5.1353815986)

   2 primitive cells build up your supercell.

 Routine SETGRP: Setting up the symmetry group for a
 triclinic supercell.

 Subroutine GETGRP returns: Found  2 space group operations
 (whereof  2 operations were pure point group operations)
 out of a pool of  2 trial point group operations.

The dynamic configuration has the point symmetry S_2 .

 Subroutine INISYM returns: Found  2 space group operations
 (whereof  2 operations are pure point group operations),
 and found     2 'primitive' translations

Automatic generation of k-mesh.
 generate k-points for:   10   11    9
Space group operators:
 irot       det(A)        alpha          n_x          n_y          n_z        tau_x        tau_y        tau_z
    1     1.000000     0.000001     1.000000     0.000000     0.000000     0.000000     0.000000     0.000000
    2    -1.000000     0.000001     1.000000     0.000000     0.000000     0.000000     0.000000     0.000000

 Subroutine IBZKPT returns following result:

 Found    496 irreducible k-points:

 Following reciprocal coordinates:
            Coordinates               Weight
  0.000000  0.000000  0.000000      1.000000
  0.100000 -0.000000 -0.000000      2.000000
  0.200000 -0.000000  0.000000      2.000000
  0.300000 -0.000000  0.000000      2.000000
  0.400000 -0.000000  0.000000      2.000000
  0.500000 -0.000000  0.000000      1.000000
 -0.000000  0.090909 -0.000000      2.000000
  0.100000  0.090909 -0.000000      2.000000
  0.200000  0.090909  0.000000      2.000000
  0.300000  0.090909  0.000000      2.000000
  0.400000  0.090909  0.000000      2.000000
  0.500000  0.090909  0.000000      2.000000
 -0.400000  0.090909 -0.000000      2.000000
 -0.300000  0.090909  0.000000      2.000000
 -0.200000  0.090909  0.000000      2.000000
 -0.100000  0.090909 -0.000000      2.000000
 -0.000000  0.181818 -0.000000      2.000000
  0.100000  0.181818 -0.000000      2.000000
  0.200000  0.181818  0.000000      2.000000
  0.300000  0.181818 -0.000000      2.000000
  0.400000  0.181818  0.000000      2.000000
  0.500000  0.181818  0.000000      2.000000
 -0.400000  0.181818 -0.000000      2.000000
 -0.300000  0.181818  0.000000      2.000000
 -0.200000  0.181818  0.000000      2.000000
 -0.100000  0.181818  0.000000      2.000000
 -0.000000  0.272727  0.000000      2.000000
  0.100000  0.272727  0.000000      2.000000
  0.200000  0.272727  0.000000      2.000000
  0.300000  0.272727  0.000000      2.000000
  0.400000  0.272727  0.000000      2.000000
  0.500000  0.272727  0.000000      2.000000
 -0.400000  0.272727  0.000000      2.000000
 -0.300000  0.272727  0.000000      2.000000
 -0.200000  0.272727 -0.000000      2.000000
 -0.100000  0.272727  0.000000      2.000000
 -0.000000  0.363636 -0.000000      2.000000
  0.100000  0.363636  0.000000      2.000000
  0.200000  0.363636  0.000000      2.000000
  0.300000  0.363636  0.000000      2.000000
  0.400000  0.363636  0.000000      2.000000
  0.500000  0.363636  0.000000      2.000000
 -0.400000  0.363636  0.000000      2.000000
 -0.300000  0.363636  0.000000      2.000000
 -0.200000  0.363636  0.000000      2.000000
 -0.100000  0.363636 -0.000000      2.000000
 -0.000000  0.454545  0.000000      2.000000
  0.100000  0.454545  0.000000      2.000000
  0.200000  0.454545  0.000000      2.000000
  0.300000  0.454545  0.000000      2.000000
  0.400000  0.454545  0.000000      2.000000
  0.500000  0.454545  0.000000      2.000000
 -0.400000  0.454545  0.000000      2.000000
 -0.300000  0.454545  0.000000      2.000000
 -0.200000  0.454545 -0.000000      2.000000
 -0.100000  0.454545  0.000000      2.000000
  0.000000 -0.000000  0.111111      2.000000
  0.100000 -0.000000  0.111111      2.000000
  0.200000 -0.000000  0.111111      2.000000
  0.300000 -0.000000  0.111111      2.000000
[...]
  0.500000 -0.181818  0.444444      2.000000
 -0.400000 -0.181818  0.444444      2.000000
 -0.300000 -0.181818  0.444444      2.000000
 -0.200000 -0.181818  0.444444      2.000000
 -0.100000 -0.181818  0.444444      2.000000
  0.000000 -0.090909  0.444444      2.000000
  0.100000 -0.090909  0.444444      2.000000
  0.200000 -0.090909  0.444444      2.000000
  0.300000 -0.090909  0.444444      2.000000
  0.400000 -0.090909  0.444444      2.000000
  0.500000 -0.090909  0.444444      2.000000
 -0.400000 -0.090909  0.444444      2.000000
 -0.300000 -0.090909  0.444444      2.000000
 -0.200000 -0.090909  0.444444      2.000000
 -0.100000 -0.090909  0.444444      2.000000

 Following cartesian coordinates:
            Coordinates               Weight
  0.000000  0.000000  0.000000      1.000000
  0.029695  0.007974 -0.002151      2.000000
  0.059389  0.015948 -0.004303      2.000000
  0.089084  0.023922 -0.006454      2.000000
  0.118778  0.031895 -0.008606      2.000000
  0.148473  0.039869 -0.010757      1.000000
 -0.006978  0.030489 -0.005322      2.000000
  0.022717  0.038463 -0.007473      2.000000
  0.052411  0.046437 -0.009625      2.000000
  0.082106  0.054410 -0.011776      2.000000
  0.111800  0.062384 -0.013928      2.000000
  0.141495  0.070358 -0.016079      2.000000
 -0.125756 -0.001407  0.003284      2.000000
 -0.096061  0.006567  0.001132      2.000000
 -0.066367  0.014541 -0.001019      2.000000
 -0.036672  0.022515 -0.003170      2.000000
 -0.013955  0.060978 -0.010644      2.000000
  0.015739  0.068951 -0.012795      2.000000
  0.045434  0.076925 -0.014947      2.000000
  0.075128  0.084899 -0.017098      2.000000
  0.104823  0.092873 -0.019250      2.000000
  0.134517  0.100847 -0.021401      2.000000
 -0.132733  0.029082 -0.002038      2.000000
 -0.103039  0.037056 -0.004190      2.000000
 -0.073344  0.045030 -0.006341      2.000000
 -0.043650  0.053004 -0.008492      2.000000
 -0.020933  0.091466 -0.015966      2.000000
  0.008762  0.099440 -0.018117      2.000000
  0.038456  0.107414 -0.020269      2.000000
  0.068151  0.115388 -0.022420      2.000000
  0.097845  0.123362 -0.024571      2.000000
  0.127540  0.131336 -0.026723      2.000000
 -0.139711  0.059571 -0.007360      2.000000
 -0.110016  0.067545 -0.009511      2.000000
 -0.080322  0.075519 -0.011663      2.000000
 -0.050627  0.083493 -0.013814      2.000000
 -0.027910  0.121955 -0.021288      2.000000
  0.001784  0.129929 -0.023439      2.000000
  0.031479  0.137903 -0.025591      2.000000
  0.061173  0.145877 -0.027742      2.000000
  0.090868  0.153851 -0.029893      2.000000
  0.120562  0.161825 -0.032045      2.000000
 -0.146688  0.090060 -0.012682      2.000000
 -0.116994  0.098034 -0.014833      2.000000
 -0.087299  0.106007 -0.016985      2.000000
 -0.057605  0.113981 -0.019136      2.000000
 -0.034888  0.152444 -0.026610      2.000000
 -0.005193  0.160418 -0.028761      2.000000
  0.024501  0.168392 -0.030912      2.000000
  0.054196  0.176366 -0.033064      2.000000
  0.083890  0.184339 -0.035215      2.000000
  0.113585  0.192313 -0.037367      2.000000
 -0.153666  0.120548 -0.018004      2.000000
 -0.123971  0.128522 -0.020155      2.000000
 -0.094277  0.136496 -0.022307      2.000000
 -0.064582  0.144470 -0.024458      2.000000
  0.006043  0.003405  0.030076      2.000000
  0.035738  0.011378  0.027924      2.000000
  0.065432  0.019352  0.025773      2.000000
  0.095127  0.027326  0.023621      2.000000
[...]
  0.186601 -0.007490  0.120190      2.000000
 -0.080650 -0.079255  0.139552      2.000000
 -0.050955 -0.071281  0.137401      2.000000
 -0.021261 -0.063307  0.135250      2.000000
  0.008434 -0.055333  0.133098      2.000000
  0.031151 -0.016871  0.125625      2.000000
  0.060845 -0.008897  0.123473      2.000000
  0.090540 -0.000923  0.121322      2.000000
  0.120234  0.007051  0.119171      2.000000
  0.149929  0.015025  0.117019      2.000000
  0.179623  0.022999  0.114868      2.000000
 -0.087627 -0.048766  0.134231      2.000000
 -0.057933 -0.040792  0.132079      2.000000
 -0.028238 -0.032818  0.129928      2.000000
  0.001456 -0.024844  0.127776      2.000000

 SYSTEM =  Cu.01.atoms2/POSCAR.7, atoms=2
 POSCAR =  Cu.01.atoms2/POSCAR.7

 Startparameter for this run:
   NWRITE =      2    write-flag & timer
[...]
 k-point 24 :  -0.3000 0.1818 0.0000  plane waves:    1140
 k-point 25 :  -0.2000 0.1818 0.0000  plane waves:    1133
 k-point 26 :  -0.1000 0.1818 0.0000  plane waves:    1137
 k-point 27 :  -0.0000 0.2727 0.0000  plane waves:    1135
 k-point 28 :   0.1000 0.2727 0.0000  plane waves:    1135
 k-point 29 :   0.2000 0.2727 0.0000  plane waves:    1137
 k-point 30 :   0.3000 0.2727 0.0000  plane waves:    1138
 k-point 31 :   0.4000 0.2727 0.0000  plane waves:    1138
 k-point 32 :   0.5000 0.2727 0.0000  plane waves:    1136
 k-point 33 :  -0.4000 0.2727 0.0000  plane waves:    1139
 k-point 34 :  -0.3000 0.2727 0.0000  plane waves:    1143
 k-point 35 :  -0.2000 0.2727-0.0000  plane waves:    1140
 k-point 36 :  -0.1000 0.2727 0.0000  plane waves:    1142
 k-point 37 :  -0.0000 0.3636-0.0000  plane waves:    1134
 k-point 38 :   0.1000 0.3636 0.0000  plane waves:    1138
 k-point 39 :   0.2000 0.3636 0.0000  plane waves:    1141
 k-point 40 :   0.3000 0.3636 0.0000  plane waves:    1137
 k-point 41 :   0.4000 0.3636 0.0000  plane waves:    1137
 k-point 42 :   0.5000 0.3636 0.0000  plane waves:    1142
 k-point 43 :  -0.4000 0.3636 0.0000  plane waves:    1146
 k-point 44 :  -0.3000 0.3636 0.0000  plane waves:    1140
 k-point 45 :  -0.2000 0.3636 0.0000  plane waves:    1144
 k-point 46 :  -0.1000 0.3636-0.0000  plane waves:    1139
 k-point 47 :  -0.0000 0.4545 0.0000  plane waves:    1131
 k-point 48 :   0.1000 0.4545 0.0000  plane waves:    1139
 k-point 49 :   0.2000 0.4545 0.0000  plane waves:    1147
 k-point 50 :   0.3000 0.4545 0.0000  plane waves:    1140
 k-point 51 :   0.4000 0.4545 0.0000  plane waves:    1140
 k-point 52 :   0.5000 0.4545 0.0000  plane waves:    1136
 k-point 53 :  -0.4000 0.4545 0.0000  plane waves:    1144
 k-point 54 :  -0.3000 0.4545 0.0000  plane waves:    1147
 k-point 55 :  -0.2000 0.4545-0.0000  plane waves:    1155
 k-point 56 :  -0.1000 0.4545 0.0000  plane waves:    1144
 k-point 57 :   0.0000-0.0000 0.1111  plane waves:    1138
 k-point 58 :   0.1000-0.0000 0.1111  plane waves:    1147
 k-point 59 :   0.2000-0.0000 0.1111  plane waves:    1152
 k-point 60 :   0.3000-0.0000 0.1111  plane waves:    1144
[...]
 k-point 85 :  -0.2000 0.1818 0.1111  plane waves:    1137
 k-point 86 :  -0.1000 0.1818 0.1111  plane waves:    1140
 k-point 87 :  -0.0000 0.2727 0.1111  plane waves:    1143
 k-point 88 :   0.1000 0.2727 0.1111  plane waves:    1140
 k-point 89 :   0.2000 0.2727 0.1111  plane waves:    1140
 k-point 90 :   0.3000 0.2727 0.1111  plane waves:    1133
 k-point 91 :   0.4000 0.2727 0.1111  plane waves:    1129
 k-point 92 :   0.5000 0.2727 0.1111  plane waves:    1130
 k-point 93 :  -0.4000 0.2727 0.1111  plane waves:    1135
 k-point 94 :  -0.3000 0.2727 0.1111  plane waves:    1139
 k-point 95 :  -0.2000 0.2727 0.1111  plane waves:    1142
 k-point 96 :  -0.1000 0.2727 0.1111  plane waves:    1140
 k-point 97 :  -0.0000 0.3636 0.1111  plane waves:    1136
 k-point 98 :   0.1000 0.3636 0.1111  plane waves:    1140
 k-point 99 :   0.2000 0.3636 0.1111  plane waves:    1139
 k-point ** :   0.3000 0.3636 0.1111  plane waves:    1140
 k-point ** :   0.4000 0.3636 0.1111  plane waves:    1137
 k-point ** :   0.5000 0.3636 0.1111  plane waves:    1139
 k-point ** :  -0.4000 0.3636 0.1111  plane waves:    1139
 k-point ** :  -0.3000 0.3636 0.1111  plane waves:    1141
 k-point ** :  -0.2000 0.3636 0.1111  plane waves:    1140
 k-point ** :  -0.1000 0.3636 0.1111  plane waves:    1143
 k-point ** :  -0.0000 0.4545 0.1111  plane waves:    1143
 k-point ** :   0.1000 0.4545 0.1111  plane waves:    1142
 k-point ** :   0.2000 0.4545 0.1111  plane waves:    1140
 k-point ** :   0.3000 0.4545 0.1111  plane waves:    1138
 k-point ** :   0.4000 0.4545 0.1111  plane waves:    1140
 k-point ** :   0.5000 0.4545 0.1111  plane waves:    1134
 k-point ** :  -0.4000 0.4545 0.1111  plane waves:    1140
 k-point ** :  -0.3000 0.4545 0.1111  plane waves:    1149
 k-point ** :  -0.2000 0.4545 0.1111  plane waves:    1146
 k-point ** :  -0.1000 0.4545 0.1111  plane waves:    1144
 k-point ** :   0.0000-0.4545 0.1111  plane waves:    1136
 k-point ** :   0.1000-0.4545 0.1111  plane waves:    1145
 k-point ** :   0.2000-0.4545 0.1111  plane waves:    1152
 k-point ** :   0.3000-0.4545 0.1111  plane waves:    1148
 k-point ** :   0.4000-0.4545 0.1111  plane waves:    1145
 k-point ** :   0.5000-0.4545 0.1111  plane waves:    1136
 k-point ** :  -0.4000-0.4545 0.1111  plane waves:    1134
 k-point ** :  -0.3000-0.4545 0.1111  plane waves:    1138
 k-point ** :  -0.2000-0.4545 0.1111  plane waves:    1138
 k-point ** :  -0.1000-0.4545 0.1111  plane waves:    1142
 k-point ** :   0.0000-0.3636 0.1111  plane waves:    1136
 k-point ** :   0.1000-0.3636 0.1111  plane waves:    1144
 k-point ** :   0.2000-0.3636 0.1111  plane waves:    1145
 k-point ** :   0.3000-0.3636 0.1111  plane waves:    1150
 k-point ** :   0.4000-0.3636 0.1111  plane waves:    1148
 k-point ** :   0.5000-0.3636 0.1111  plane waves:    1144
 k-point ** :  -0.4000-0.3636 0.1111  plane waves:    1135
 k-point ** :  -0.3000-0.3636 0.1111  plane waves:    1133
 k-point ** :  -0.2000-0.3636 0.1111  plane waves:    1141
 k-point ** :  -0.1000-0.3636 0.1111  plane waves:    1138
 k-point ** :   0.0000-0.2727 0.1111  plane waves:    1142
 k-point ** :   0.1000-0.2727 0.1111  plane waves:    1140
 k-point ** :   0.2000-0.2727 0.1111  plane waves:    1143
 k-point ** :   0.3000-0.2727 0.1111  plane waves:    1144
 k-point ** :   0.4000-0.2727 0.1111  plane waves:    1144
 k-point ** :   0.5000-0.2727 0.1111  plane waves:    1140
 k-point ** :  -0.4000-0.2727 0.1111  plane waves:    1135
 k-point ** :  -0.3000-0.2727 0.1111  plane waves:    1130
 k-point ** :  -0.2000-0.2727 0.1111  plane waves:    1139
 k-point ** :  -0.1000-0.2727 0.1111  plane waves:    1138
 k-point ** :   0.0000-0.1818 0.1111  plane waves:    1145
 k-point ** :   0.1000-0.1818 0.1111  plane waves:    1143
 k-point ** :   0.2000-0.1818 0.1111  plane waves:    1145
 k-point ** :   0.3000-0.1818 0.1111  plane waves:    1139
 k-point ** :   0.4000-0.1818 0.1111  plane waves:    1136
 k-point ** :   0.5000-0.1818 0.1111  plane waves:    1131
 k-point ** :  -0.4000-0.1818 0.1111  plane waves:    1140
 k-point ** :  -0.3000-0.1818 0.1111  plane waves:    1136
 k-point ** :  -0.2000-0.1818 0.1111  plane waves:    1134
 k-point ** :  -0.1000-0.1818 0.1111  plane waves:    1145
 k-point ** :   0.0000-0.0909 0.1111  plane waves:    1143
 k-point ** :   0.1000-0.0909 0.1111  plane waves:    1144
 k-point ** :   0.2000-0.0909 0.1111  plane waves:    1150
[...]
 k-point ** :   0.5000-0.1818 0.4444  plane waves:    1135
 k-point ** :  -0.4000-0.1818 0.4444  plane waves:    1125
 k-point ** :  -0.3000-0.1818 0.4444  plane waves:    1130
 k-point ** :  -0.2000-0.1818 0.4444  plane waves:    1124
 k-point ** :  -0.1000-0.1818 0.4444  plane waves:    1132
 k-point ** :   0.0000-0.0909 0.4444  plane waves:    1142
 k-point ** :   0.1000-0.0909 0.4444  plane waves:    1146
 k-point ** :   0.2000-0.0909 0.4444  plane waves:    1144
 k-point ** :   0.3000-0.0909 0.4444  plane waves:    1149
 k-point ** :   0.4000-0.0909 0.4444  plane waves:    1145
 k-point ** :   0.5000-0.0909 0.4444  plane waves:    1138
 k-point ** :  -0.4000-0.0909 0.4444  plane waves:    1135
 k-point ** :  -0.3000-0.0909 0.4444  plane waves:    1132
 k-point ** :  -0.2000-0.0909 0.4444  plane waves:    1139
 k-point ** :  -0.1000-0.0909 0.4444  plane waves:    1135

 maximum and minimum number of plane-waves per node :       156      130

 maximum number of plane-waves:      1155
 maximum index in each direction:
   IXMAX=    6   IYMAX=    6   IZMAX=    7
   IXMIN=   -7   IYMIN=   -6   IZMIN=   -7

 real space projection operators:
  max/ min on nodes  :        254.11        196.59

 parallel 3D FFT for wavefunctions:
    minimum data exchange during FFTs selected (reduces bandwidth)
 parallel 3D FFT for charge:
    minimum data exchange during FFTs selected (reduces bandwidth)

 Broyden mixing: mesh for mixing (old mesh)
   NGX = 13   NGY = 11   NGZ = 15
  (NGX  = 56   NGY  = 48   NGZ  = 60)
  gives a total of   2145 points

 initial charge density was supplied:
 charge density of overlapping atoms calculated
 number of electron      22.0000000 magnetization
 keeping initial charge density in first step

 Maximum index for non-local projection operator          991
 Maximum index for augmentation-charges          767 (set IRDMAX)

 First call to EWALD:  gamma=   0.547
 Maximum number of real-space cells 3x 3x 3
 Maximum number of reciprocal cells 3x 2x 3

--------------------------------------- Iteration      1(   1)  ---------------------------------------

 eigenvalue-minimisations  : 24972
 total energy-change (2. order) : 0.1065924E+03  (-0.1097025E+04)
 number of electron      22.0000000 magnetization
 augmentation part       22.0000000 magnetization

 Free energy of the ion-electron system (eV)
  alpha Z        PSCENC =        85.81459405
  Ewald energy   TEWEN  =     -1945.46642293
  -Hartree energ DENC   =      -878.41245631
  -exchange      EXHF   =         0.00000000
  -V(xc)+E(xc)   XCENC  =        89.94284408
  PAW double counting   =      2456.41331976    -2668.09693425
  entropy T*S    EENTRO =        -0.00029578
  eigenvalues    EBANDS =       184.44278828
  atomic energy  EATOM  =      2781.95491984
  Solvation  Ediel_sol  =         0.00000000
  free energy    TOTEN  =       106.59235675 eV

  energy without entropy =      106.59265253  energy(sigma->0) =      106.59250464

[...]

 eigenvalue-minimisations  : 24504
 total energy-change (2. order) :-0.1094803E+03  (-0.9828611E+02)
 number of electron      22.0000000 magnetization
 augmentation part       22.0000000 magnetization

[...]

 Broyden mixing:
  rms(total) = 0.94617E+00    rms(broyden)= 0.94616E+00
  rms(prec ) = 0.23417E+01
  weight for this iteration     100.00

[...]

 eigenvalues of (default mixing * dielectric matrix)
  average eigenvalue GAMMA=   0.5684
  0.5684

[...]

 eigenvalue-minimisations  : 21828
 total energy-change (2. order) : 0.1547552E-05  (-0.3485643E-06)
 number of electron      21.9999992 magnetization
 augmentation part       14.1590269 magnetization

 Broyden mixing:
  rms(total) = 0.63078E-04    rms(broyden)= 0.63022E-04
  rms(prec ) = 0.13502E-03
  weight for this iteration     100.00

 eigenvalues of (default mixing * dielectric matrix)
  average eigenvalue GAMMA=   1.5704
  2.5841  2.5841  2.2917  0.6314  1.0378  0.8912  0.9722

[...]

--------------------------------------- Iteration      1(  13)  ---------------------------------------

 eigenvalue-minimisations  : 15120
 total energy-change (2. order) :-0.1084823E-06  (-0.9854595E-08)
 number of electron      21.9999992 magnetization
 augmentation part       14.1590269 magnetization

 Free energy of the ion-electron system (eV)
  alpha Z        PSCENC =        85.81459405
  Ewald energy   TEWEN  =     -1945.46642293
  -Hartree energ DENC   =      -839.95444210
  -exchange      EXHF   =         0.00000000
  -V(xc)+E(xc)   XCENC  =        88.24791903
  PAW double counting   =      2481.62293487    -2694.75189968
  entropy T*S    EENTRO =        -0.00009296
  eigenvalues    EBANDS =        36.04310736
  atomic energy  EATOM  =      2781.95491984
  Solvation  Ediel_sol  =         0.00000000
  free energy    TOTEN  =        -6.48938252 eV

  energy without entropy =       -6.48928956  energy(sigma->0) =       -6.48933604

 average (electrostatic) potential at core
  the test charge radii are     0.9430
  (the norm of the test charge is              1.0000)
       1 -66.7958       2 -66.7958

 E-fermi :   3.7993     XC(G=0): -10.7128     alpha+bet : -9.3018

 k-point     1 :       0.0000    0.0000    0.0000
  band No.  band energies     occupation
      1      -3.0958      2.00000
      2       0.7077      2.00000
      3       0.8095      2.00000
      4       1.2632      2.00000
      5       1.4763      2.00000
      6       1.9552      2.00000
      7       2.1321      2.00000
      8       2.2579      2.00000
      9       2.3736      2.00000
     10       2.5957      2.00000
     11       2.6735      2.00000
     12       7.8270      0.00000
     13      10.6906      0.00000
     14      11.6450      0.00000
     15      14.6437      0.00000
     16      14.8599      0.00000
     17      18.4579      0.00000
     18      18.8605      0.00000
     19      22.1948      0.00000
     20      23.4375      0.00000
     21      26.2113      0.00000
     22      26.7255      0.00000
     23      27.3979      0.00000
     24      29.1182      0.00000

[...]

 k-point   496 :      -0.1000   -0.0909    0.4444
  band No.  band energies     occupation
      1      -0.6715      2.00000
      2       0.3126      2.00000
      3       1.2697      2.00000
      4       1.4207      2.00000
      5       1.6650      2.00000
      6       1.7855      2.00000
      7       1.8625      2.00000
      8       2.0362      2.00000
      9       2.2106      2.00000
     10       2.2168      2.00000
     11       2.3379      2.00000
     12       2.7455      2.00000
     13      11.3514      0.00000
     14      13.5196      0.00000
     15      14.2501      0.00000
     16      16.8956      0.00000
     17      18.5457      0.00000
     18      21.6361      0.00000
     19      22.3574      0.00000
     20      22.6136      0.00000
     21      23.9142      0.00000
     22      26.5775      0.00000
     23      27.9115      0.00000
     24      29.3331      0.00000

 soft charge-density along one line, spin component           1
         0         1         2         3         4         5         6         7         8         9
 total charge-density along one line

------------------------ aborting loop because EDIFF is reached ----------------------------------------

  FORCE on cell =-STRESS in cart. coord.  units (eV):
  Direction    XX          YY          ZZ          XY          YZ          ZX
  Alpha Z    85.81459    85.81459    85.81459
  Ewald    -650.93045  -618.63774  -675.89886    -7.82947   -10.13871    89.58127
  Hartree   278.16522   299.71603   262.07307    -5.10216    -5.67846    55.04666
  E(xc)    -127.79740  -127.75789  -127.81963    -0.00601    -0.01241     0.08640
  Local      95.97031    42.65965   136.74685    12.84183    15.59901  -143.27496
  n-local   -50.34312   -50.48314   -50.49618    -0.02419    -0.09766     0.79945
  augment   188.63694   188.30568   188.83069     0.05357     0.09529    -0.81470
  Kinetic   176.89326   176.27982   177.16201     0.09593     0.10050    -0.84369
  Fock        0.00000     0.00000     0.00000     0.00000     0.00000     0.00000
  Total      -3.59066    -4.10300    -3.58745     0.02951    -0.13244     0.58043
  in kB    -168.76162  -192.84190  -168.61067     1.38702    -6.22467    27.28020

 VOLUME and BASIS-vectors are now :
  energy-cutoff  :      600.00
  volume of cell :       34.09
      direct lattice vectors                 reciprocal lattice vectors
     3.155734316  0.599675484 -0.701986499     0.296945125  0.079738737 -0.021514253
    -0.758236990  2.779860728 -0.162320058    -0.076753053  0.335376732 -0.058541068
     0.086837300  0.648871474  3.603476546     0.054389950  0.030640934  0.270681627

  length of vectors
     3.288016849  2.885982813  3.662460665     0.308216703  0.348992321  0.277787107

 FORCES acting on ions
    electron-ion (+dipol)            ewald-force                    non-local-force                 convergence-correction
   0.112E-07 0.246E-06 -.935E-06   -.169E-07 -.383E-06 0.145E-05   0.248E-23 0.000E+00 0.000E+00   0.119E-09 0.142E-09 -.286E-08
   0.642E-06 0.167E-06 -.250E-06   0.169E-07 0.383E-06 -.145E-05   0.247E-22 0.132E-22 0.662E-23   -.461E-09 -.240E-09 0.333E-08
   0.654E-06 0.413E-06 -.119E-05   0.150E-14 0.107E-14 -.575E-15   0.272E-22 0.132E-22 0.662E-23   -.342E-09 -.979E-10 0.476E-09

 POSITION                                       TOTAL-FORCE (eV/Angst)
      0.00000      0.00000      0.00000        -0.000000     -0.000000     -0.000000
      1.24217      2.01420      1.36959         0.000000      0.000000      0.000000
    total drift:                                0.000001      0.000000     -0.000001

  FREE ENERGIE OF THE ION-ELECTRON SYSTEM (eV)
  free  energy   TOTEN  =        -6.48938252 eV

  energy  without entropy=       -6.48928956  energy(sigma->0) =       -6.48933604

 stress matrix after NEB project (eV)
     -3.59066      0.02951      0.58043
      0.02951     -4.10300     -0.13244
      0.58043     -0.13244     -3.58745
  FORCES: max atom, RMS     0.000000    0.000000
  FORCE total and by dimension    0.000000    0.000000
  Stress total and by dimension    6.580871    4.103003