 | Materials Studio CASTEP version 2017            |
 | Ab Initio Total Energy Program                  |
 | Authors:                                        |
 | M. Segall, M. Probert, C. Pickard, P. Hasnip,   |
 | S. Clark, K. Refson, J. R. Yates, M. Payne      |
 | Contributors:                                   |
 | P. Lindan, P. Haynes, J. White, V. Milman,      |
 | N. Govind, M. Gibson, P. Tulip, V. Cocula,      |
 | B. Montanari, D. Quigley, M. Glover,            |
 | L. Bernasconi, A. Perlov, M. Plummer,           |
 | E. McNellis, J. Meyer, J. Gale, D. Jochym       |
 | J. Aarons, B. Walker, R. Gillen, D. Jones       |
 | T. Green, I. J. Bush, C. J. Armstrong,          |
 | E. J. Higgins, E. L. Brown, M. S. McFly         |
 | Copyright (c) 2000 - 2016                       |
 | Please cite                                     |
 |     "First principles methods using CASTEP"     |
 |         Zeitschrift fuer Kristallographie       |
 |           220(5-6) pp. 567-570 (2005)           |
 | S. J. Clark, M. D. Segall, C. J. Pickard,       |
 | P. J. Hasnip, M. J. Probert, K. Refson,         |
 | M. C. Payne                                     |
 |       in all publications arising from          |
 |              your use of CASTEP                 |

 This version was compiled for x86_64-windows-msvc2008 on May 05 2016
 Intel(R) Math Kernel Library Version 11.1.2
 Fundamental constants values: CODATA 2010

 Pseudo atomic calculation performed for C 2s2 2p2

 Converged in 17 iterations to a total energy of -145.7157 eV

 Calculation parallelised over 7 processes.
 Data is distributed by k-point(7-way)

 ************************************ Title ************************************
 CASTEP calculation from Materials Studio

 ***************************** General Parameters ******************************

 output verbosity                               : normal  (1)
 write checkpoint data to                       : 01.check
 type of calculation                            : single point energy
 stress calculation                             : off
 density difference calculation                 : off
 electron localisation func (ELF) calculation   : off
 Hirshfeld analysis                             : on
 unlimited duration calculation
 timing information                             : on
 write final potential to formatted file        : off
 write final density to formatted file          : off
 write BibTeX reference list                    : on
 write OTFG pseudopotential files               : on
 checkpoint writing                             : both castep_bin and check files

 output         length unit                     : A
 output           mass unit                     : amu
 output           time unit                     : ps
 output         charge unit                     : e
 output           spin unit                     : hbar/2
 output         energy unit                     : eV
 output          force unit                     : eV/A
 output       velocity unit                     : A/ps
 output       pressure unit                     : GPa
 output     inv_length unit                     : 1/A
 output      frequency unit                     : cm-1
 output force constant unit                     : eV/A**2
 output         volume unit                     : A**3
 output   IR intensity unit                     : (D/A)**2/amu
 output         dipole unit                     : D
 output         efield unit                     : eV/A/e
 output        entropy unit                     : J/mol/K

 wavefunctions paging                           : none
 random number generator seed                   : randomised (120423634)
 data distribution                              : optimal for this architecture

 *********************** Exchange-Correlation Parameters ***********************

 using functional                               : Perdew Burke Ernzerhof
 relativistic treatment                         : Koelling-Harmon
 DFT+D: Semi-empirical dispersion correction    : off

 ************************* Pseudopotential Parameters **************************

 pseudopotential representation                 : reciprocal space
 <beta|phi> representation                      : reciprocal space
 spin-orbit coupling                            : off

 **************************** Basis Set Parameters *****************************

 plane wave basis set cut-off                   :   750.0000   eV
 size of standard grid                          :     1.5000
 size of   fine   gmax                          :    21.0456   1/A
 largest prime factor in FFT                    :          5
 finite basis set correction                    : none

 **************************** Electronic Parameters ****************************

 number of  electrons                           :  256.0
 net charge of system                           :  0.000
 treating system as non-spin-polarized
 number of bands                                :        128

 ********************* Electronic Minimization Parameters **********************

 Method: Treating system as non-metallic,
         and number of  SD  steps               :          1
         and number of  CG  steps               :          4

 total energy / atom convergence tol.           : 0.2000E-05   eV
 eigen-energy convergence tolerance             : 0.1000E-05   eV
 max force / atom convergence tol.              : ignored
 convergence tolerance window                   :          3   cycles
 max. number of SCF cycles                      :        100
 periodic dipole correction                     : NONE

 ************************** Density Mixing Parameters **************************

 density-mixing scheme                          : Pulay
 max. length of mixing history                  :         20
 charge density mixing amplitude                : 0.5000
 cut-off energy for mixing                      :  750.0       eV
 charge density mixing g-vector                 :  1.500       1/A

 *********************** Population Analysis Parameters ************************

 Population analysis with cutoff                :  3.000       A

                                      Unit Cell
        Real Lattice(A)                      Reciprocal Lattice(1/A)
   7.1438500   0.0000000   0.0000000        0.8795237   0.0000000   0.0000000
   0.0000000   7.1438500   0.0000000        0.0000000   0.8795237   0.0000000
   0.0000000   0.0000000   7.1438500        0.0000000   0.0000000   0.8795237

                       Lattice parameters(A)       Cell Angles
                    a =    7.143850          alpha =   90.000000
                    b =    7.143850          beta  =   90.000000
                    c =    7.143850          gamma =   90.000000

                       Current cell volume =  364.583476       A**3

                                     Cell Contents
                         Total number of ions in cell =   64
                      Total number of species in cell =    1
                        Max number of any one species =   64

            x  Element    Atom        Fractional coordinates of atoms  x
            x            Number           u          v          w      x
            x  C            1         0.002666   0.001475   0.000207   x
            x  C            2         0.002732   0.250333   0.250337   x
            x  C            3         0.250087   0.001064   0.252748   x
            x  C            4         0.251383   0.252276   0.001391   x
            x  C            5         0.377415   0.125683   0.375063   x
            x  C            6         0.125680   0.127476   0.125151   x
            x  C            7         0.127336   0.376995   0.375394   x
            x  C            8         0.377278   0.376059   0.127501   x
            x  C            9         0.501761   0.000697   0.001304   x
            x  C           10         0.500006   0.250708   0.251570   x
            x  C           11         0.751063   0.002148   0.251384   x
            x  C           12         0.752532   0.250140   0.000190   x
            x  C           13         0.876905   0.126919   0.377513   x
            x  C           14         0.626060   0.126737   0.125808   x
            x  C           15         0.626769   0.377090   0.375753   x
            x  C           16         0.875681   0.377736   0.126664   x
            x  C           17         0.001600   0.501075   0.001332   x
            x  C           18         0.002748   0.750728   0.251031   x
            x  C           19         0.252379   0.502457   0.251835   x
            x  C           20         0.250794   0.752257   0.002627   x
            x  C           21         0.376911   0.626291   0.376737   x
            x  C           22         0.126003   0.625255   0.125792   x
            x  C           23         0.127763   0.876580   0.375574   x
            x  C           24         0.375235   0.875525   0.126229   x
            x  C           25         0.500701   0.501489   0.000076   x
            x  C           26         0.502271   0.750994   0.252453   x
            x  C           27         0.750236   0.500881   0.251708   x
            x  C           28         0.751487   0.752035   0.000570   x
            x  C           29         0.877241   0.626444   0.376456   x
            x  C           30         0.627068   0.627213   0.125151   x
            x  C           31         0.625397   0.875573   0.377414   x
            x  C           32         0.876226   0.876899   0.126240   x
            x  C           33         0.000981   0.000147   0.501534   x
            x  C           34         0.001340   0.252243   0.751587   x
            x  C           35         0.251644   0.001900   0.751905   x
            x  C           36         0.250408   0.252648   0.501040   x
            x  C           37         0.377535   0.125256   0.875219   x
            x  C           38         0.126792   0.127543   0.626278   x
            x  C           39         0.125456   0.376428   0.875134   x
            x  C           40         0.376584   0.376722   0.627067   x
            x  C           41         0.502608   0.000885   0.500106   x
            x  C           42         0.502192   0.250217   0.752672   x
            x  C           43         0.751920   0.002381   0.752078   x
            x  C           44         0.751305   0.250405   0.502625   x
            x  C           45         0.875729   0.126037   0.876437   x
            x  C           46         0.626594   0.126742   0.625674   x
            x  C           47         0.625696   0.377793   0.875728   x
            x  C           48         0.875894   0.376448   0.627125   x
            x  C           49         0.002550   0.502773   0.502781   x
            x  C           50         0.002478   0.750634   0.750999   x
            x  C           51         0.252225   0.501114   0.752108   x
            x  C           52         0.252592   0.751950   0.500308   x
            x  C           53         0.375501   0.625181   0.876672   x
            x  C           54         0.126449   0.627093   0.626205   x
[...]

                          Files used for pseudopotentials:
                                    C C_00PBE_OP.recpot

                              k-Points For BZ Sampling
                       MP grid size for SCF calculation is  5  5  5
                            with an offset of   0.000  0.000  0.000
                       Number of kpoints used =            63

                               Symmetry and Constraints

                      Maximum deviation from symmetry =  0.00000         ANG

         There are no symmetry operations specified or generated for this cell
         There are no ionic constraints specified or generated for this cell
                      Point group of crystal =     1: C1, 1, 1
                      Space group of crystal =     1: P1, P 1

                         Centre of mass is NOT constrained

                         Number of cell constraints= 0
                         Cell constraints are:  1 2 3 4 5 6

                         External pressure/stress (GPa)
                          0.00000   0.00000   0.00000
                                    0.00000   0.00000
                                              0.00000

Final energy =  -9902.055910099     eV
(energy not corrected for finite basis set)

Writing analysis data to 01.castep_bin

Writing model to 01.check

 *********************** Forces ***********************
 *            Cartesian components (eV/A)             *
 *                   x            y            z      *
 * C         1     -0.45980      0.01096      0.26553 *
 * C         2     -0.48880      0.61172      0.30275 *
 * C         3      0.41194      0.22137     -0.68006 *
 * C         4      0.11280     -0.24181     -0.12961 *
 * C         5     -0.43906      0.15733      0.43488 *
 * C         6      0.32074     -0.34087      0.20058 *
 * C         7     -0.14733      0.00426      0.25814 *
 * C         8     -0.31100      0.20581     -0.38123 *
 * C         9     -0.14871      0.05109      0.10354 *
 * C        10      0.56115      0.18569     -0.21237 *
 * C        11      0.04104     -0.14474      0.07575 *
 * C        12     -0.47855      0.62196      0.38248 *
 * C        13     -0.04559     -0.26000     -0.33723 *
 * C        14      0.06363     -0.10605      0.11296 *
 * C        15     -0.22025     -0.44983      0.22934 *
 * C        16      0.23615     -0.63290     -0.13879 *
 * C        17     -0.18338      0.07715     -0.03231 *
 * C        18     -0.36009      0.11574     -0.05146 *
 * C        19     -0.12632     -0.30682     -0.19995 *
 * C        20      0.07714     -0.50882     -0.34539 *
 * C        21      0.06293      0.05804     -0.12973 *
 * C        22      0.23332      0.32255      0.17257 *
 * C        23     -0.41359     -0.18292      0.26860 *
 * C        24      0.31758      0.21897      0.31721 *
 * C        25      0.24494     -0.01777      0.48033 *
 * C        26     -0.28968      0.03884     -0.42319 *
 * C        27      0.44293      0.26688     -0.23153 *
 * C        28      0.23252     -0.05528      0.22666 *
 * C        29     -0.09745      0.05966      0.02147 *
 * C        30     -0.24762     -0.16942      0.25953 *
 * C        31      0.52638      0.22307     -0.45992 *
 * C        32      0.24738     -0.06277      0.03034 *
 * C        33      0.21876      0.38696      0.01426 *
 * C        34     -0.12153     -0.23479     -0.12076 *
 * C        35      0.11446     -0.09096     -0.32964 *
 * C        36      0.50521     -0.30113      0.04896 *
 * C        37     -0.22054      0.28072      0.51858 *
 * C        38     -0.22448     -0.29088      0.02383 *
 * C        39      0.32231      0.02110      0.41225 *
 * C        40      0.02472     -0.23982     -0.20895 *
 * C        41     -0.25785      0.20343      0.37258 *
 * C        42     -0.17705      0.38387     -0.61324 *
 * C        43     -0.19777     -0.28808     -0.30445 *
 * C        44      0.15157      0.53680     -0.35152 *
 * C        45      0.47969      0.14470     -0.15816 *
 * C        46      0.03067     -0.16675      0.28333 *
 * C        47      0.37544     -0.49018      0.15631 *
 * C        48      0.20208      0.17084     -0.06586 *
 * C        49     -0.35144     -0.45995     -0.49312 *
 * C        50     -0.30706      0.31377      0.09962 *
 * C        51     -0.33433      0.13434     -0.29362 *
 * C        52     -0.09357     -0.02251      0.30931 *
 * C        53      0.07488      0.49435      0.03040 *
 * C        54      0.38489     -0.03976      0.06497 *
 * C        55      0.02170      0.08848     -0.28666 *
 * C        56     -0.25371     -0.19801      0.12674 *
 * C        57     -0.10416     -0.03423      0.46213 *
 * C        58      0.09979      0.14275      0.08327 *
 * C        59     -0.35286     -0.39172     -0.15224 *
 * C        60     -0.40334     -0.26960      0.37520 *
 * C        61      0.09853      0.22271      0.00347 *
 * C        62      0.49522      0.42550     -0.25951 *
 * C        63     -0.34425     -0.25462     -0.37266 *
 * C        64      0.46868     -0.14842      0.23525 *

 Pseudo atomic calculation performed for C 2s2 2p2

 Converged in 17 iterations to a total energy of -145.7157 eV

Charge spilling parameter for spin component 1 = 0.39%

     Atomic Populations (Mulliken)
Species   Ion     s      p      d      f     Total  Charge (e)
  C        1     1.07   2.93   0.00   0.00   4.00     0.00
  C        2     1.07   2.93   0.00   0.00   4.00    -0.00
  C        3     1.07   2.93   0.00   0.00   4.00     0.00
  C        4     1.08   2.92   0.00   0.00   4.00     0.00
  C        5     1.07   2.93   0.00   0.00   4.00     0.00
  C        6     1.07   2.93   0.00   0.00   4.00    -0.00
  C        7     1.07   2.93   0.00   0.00   4.00     0.00
  C        8     1.07   2.93   0.00   0.00   4.00    -0.00
  C        9     1.07   2.93   0.00   0.00   4.00    -0.00
  C       10     1.07   2.93   0.00   0.00   4.00    -0.00
  C       11     1.08   2.92   0.00   0.00   4.00     0.00
  C       12     1.08   2.93   0.00   0.00   4.00    -0.00
  C       13     1.08   2.93   0.00   0.00   4.00    -0.00
  C       14     1.07   2.93   0.00   0.00   4.00    -0.00
  C       15     1.07   2.93   0.00   0.00   4.00     0.00
  C       16     1.08   2.92   0.00   0.00   4.00     0.00
  C       17     1.07   2.93   0.00   0.00   4.00    -0.00
  C       18     1.07   2.92   0.00   0.00   4.00     0.00
  C       19     1.07   2.93   0.00   0.00   4.00     0.00
  C       20     1.07   2.93   0.00   0.00   4.00     0.00
  C       21     1.07   2.93   0.00   0.00   4.00    -0.00
  C       22     1.07   2.93   0.00   0.00   4.00    -0.00
  C       23     1.07   2.93   0.00   0.00   4.00    -0.00
  C       24     1.08   2.92   0.00   0.00   4.00     0.00
  C       25     1.07   2.93   0.00   0.00   4.00    -0.00
  C       26     1.07   2.93   0.00   0.00   4.00     0.00
  C       27     1.07   2.93   0.00   0.00   4.00    -0.00
  C       28     1.07   2.93   0.00   0.00   4.00    -0.00
  C       29     1.07   2.92   0.00   0.00   4.00     0.00
  C       30     1.08   2.92   0.00   0.00   4.00     0.00
  C       31     1.07   2.93   0.00   0.00   4.00    -0.00
  C       32     1.08   2.92   0.00   0.00   4.00     0.00
  C       33     1.08   2.92   0.00   0.00   4.00     0.00
  C       34     1.07   2.93   0.00   0.00   4.00     0.00
  C       35     1.07   2.93   0.00   0.00   4.00     0.00
  C       36     1.08   2.92   0.00   0.00   4.00    -0.00
  C       37     1.07   2.93   0.00   0.00   4.00    -0.00
  C       38     1.08   2.92   0.00   0.00   4.00    -0.00
  C       39     1.07   2.93   0.00   0.00   4.00    -0.00
  C       40     1.08   2.92   0.00   0.00   4.00     0.00
  C       41     1.07   2.93   0.00   0.00   4.00    -0.00
  C       42     1.07   2.93   0.00   0.00   4.00    -0.00
  C       43     1.07   2.93   0.00   0.00   4.00     0.00
  C       44     1.07   2.93   0.00   0.00   4.00    -0.00
  C       45     1.07   2.93   0.00   0.00   4.00    -0.00
  C       46     1.07   2.93   0.00   0.00   4.00     0.00
  C       47     1.07   2.93   0.00   0.00   4.00     0.00
  C       48     1.07   2.93   0.00   0.00   4.00     0.00
  C       49     1.07   2.93   0.00   0.00   4.00     0.00
  C       50     1.07   2.92   0.00   0.00   4.00     0.00
  C       51     1.07   2.93   0.00   0.00   4.00    -0.00
  C       52     1.07   2.93   0.00   0.00   4.00     0.00
  C       53     1.07   2.93   0.00   0.00   4.00     0.00
  C       54     1.07   2.93   0.00   0.00   4.00    -0.00
  C       55     1.07   2.93   0.00   0.00   4.00    -0.00
  C       56     1.07   2.92   0.00   0.00   4.00     0.00
  C       57     1.07   2.93   0.00   0.00   4.00    -0.00
  C       58     1.08   2.92   0.00   0.00   4.00    -0.00
  C       59     1.07   2.93   0.00   0.00   4.00    -0.00
  C       60     1.07   2.93   0.00   0.00   4.00     0.00
  C       61     1.07   2.93   0.00   0.00   4.00     0.00
  C       62     1.08   2.92   0.00   0.00   4.00     0.00
  C       63     1.07   2.93   0.00   0.00   4.00     0.00
  C       64     1.07   2.93   0.00   0.00   4.00    -0.00

            Bond              Population      Length (A)
         C 3  -- C 23              0.84        1.52460
         C 31 -- C 41              0.83        1.52941
         C 2  -- C 6               0.83        1.53021
         C 12 -- C 45              0.84        1.53042
         C 5  -- C 10              0.83        1.53069
         C 15 -- C 27              0.83        1.53144
         C 20 -- C 24              0.83        1.53149
         C 44 -- C 46              0.83        1.53196
         C 49 -- C 54              0.83        1.53285
         C 43 -- C 45              0.83        1.53359
         C 34 -- C 39              0.83        1.53369
         C 51 -- C 53              0.83        1.53395
         C 8  -- C 10              0.83        1.53498
         C 37 -- C 42              0.83        1.53505
         C 28 -- C 63              0.83        1.53509
         C 25 -- C 53              0.83        1.53557
         C 50 -- C 54              0.83        1.53559
         C 59 -- C 61              0.83        1.53631
         C 1  -- C 55              0.83        1.53661
         C 35 -- C 37              0.83        1.53670
         C 26 -- C 31              0.83        1.53709
         C 25 -- C 47              0.83        1.53861
         C 17 -- C 22              0.83        1.53862
         C 7  -- C 36              0.83        1.53876
         C 60 -- C 64              0.83        1.53902
         C 19 -- C 21              0.82        1.53956
         C 15 -- C 57              0.82        1.54008
         C 31 -- C 60              0.82        1.54028
         C 9  -- C 63              0.82        1.54034
         C 33 -- C 64              0.82        1.54064
         C 20 -- C 55              0.82        1.54070
         C 21 -- C 52              0.82        1.54074
         C 16 -- C 27              0.82        1.54110
         C 21 -- C 57              0.82        1.54137
         C 40 -- C 51              0.83        1.54171
         C 28 -- C 30              0.83        1.54183
         C 36 -- C 38              0.83        1.54242
         C 1  -- C 6               0.82        1.54247
         C 18 -- C 22              0.82        1.54248
         C 7  -- C 19              0.82        1.54286
         C 34 -- C 48              0.82        1.54304
         C 57 -- C 62              0.82        1.54329
         C 42 -- C 47              0.82        1.54333
         C 23 -- C 52              0.82        1.54336
         C 58 -- C 62              0.83        1.54342
         C 13 -- C 44              0.82        1.54342
         C 4  -- C 6               0.82        1.54368
         C 41 -- C 56              0.82        1.54380
         C 3  -- C 5               0.82        1.54385
         C 21 -- C 26              0.82        1.54401
         C 59 -- C 62              0.82        1.54402
         C 29 -- C 60              0.82        1.54437
         C 39 -- C 51              0.82        1.54466
         C 16 -- C 17              0.82        1.54506
         C 17 -- C 39              0.82        1.54550
         C 48 -- C 59              0.82        1.54593
         C 9  -- C 14              0.82        1.54607
         C 9  -- C 37              0.82        1.54619
         C 13 -- C 33              0.82        1.54623
         C 43 -- C 63              0.82        1.54628
[...]
         C 12 -- C 30             -0.05        2.97600
         C 7  -- C 44             -0.05        2.97661
         C 5  -- C 42             -0.05        2.97708
         C 15 -- C 42             -0.05        2.97723
         C 1  -- C 16             -0.05        2.97727
         C 20 -- C 56             -0.05        2.97778
         C 52 -- C 64             -0.05        2.97831
         C 10 -- C 30             -0.05        2.97893
         C 7  -- C 33             -0.05        2.97901
         C 19 -- C 39             -0.05        2.97905
         C 1  -- C 13             -0.05        2.97918
         C 43 -- C 62             -0.05        2.97946
         C 18 -- C 31             -0.05        2.97953
         C 2  -- C 48             -0.05        2.97961
         C 3  -- C 37             -0.05        2.98160

     Hirshfeld Analysis
Species   Ion     Hirshfeld Charge (e)  Spin (hbar/2)
  C        1                -0.00        0.00
  C        2                 0.00        0.00
  C        3                 0.00        0.00
  C        4                 0.00        0.00
  C        5                 0.00        0.00
  C        6                -0.00        0.00
  C        7                -0.00        0.00
  C        8                 0.00        0.00
  C        9                -0.00        0.00
  C       10                -0.00        0.00
  C       11                 0.00        0.00
  C       12                 0.00        0.00
  C       13                -0.00        0.00
  C       14                -0.00        0.00
  C       15                 0.00        0.00
  C       16                 0.00        0.00
  C       17                 0.00        0.00
  C       18                 0.00        0.00
  C       19                -0.00        0.00
  C       20                -0.00        0.00
  C       21                -0.00        0.00
  C       22                -0.00        0.00
  C       23                -0.00        0.00
  C       24                 0.00        0.00
  C       25                -0.00        0.00
  C       26                 0.00        0.00
  C       27                 0.00        0.00
  C       28                -0.00        0.00
  C       29                 0.00        0.00
  C       30                 0.00        0.00
  C       31                -0.00        0.00
  C       32                 0.00        0.00
  C       33                 0.00        0.00
  C       34                -0.00        0.00
  C       35                 0.00        0.00
  C       36                -0.00        0.00
  C       37                -0.00        0.00
  C       38                 0.00        0.00
  C       39                -0.00        0.00
  C       40                 0.00        0.00
  C       41                -0.00        0.00
  C       42                -0.00        0.00
  C       43                 0.00        0.00
  C       44                 0.00        0.00
  C       45                -0.00        0.00
  C       46                 0.00        0.00
  C       47                 0.00        0.00
  C       48                 0.00        0.00
  C       49                 0.00        0.00
  C       50                 0.00        0.00
  C       51                -0.00        0.00
  C       52                 0.00        0.00
  C       53                -0.00        0.00
  C       54                -0.00        0.00
  C       55                 0.00        0.00
  C       56                 0.00        0.00
  C       57                -0.00        0.00
  C       58                 0.00        0.00
  C       59                -0.00        0.00
  C       60                -0.00        0.00
  C       61                 0.00        0.00
  C       62                -0.00        0.00
  C       63                -0.00        0.00
  C       64                -0.00        0.00

Writing analysis data to 01.castep_bin

Writing model to 01.check

 A BibTeX formatted list of references used in this run has been written to
 01.bib

Initialisation time =     11.12 s
Calculation time    =   2054.53 s
Finalisation time   =      4.43 s
Total time          =   2070.09 s

Overall parallel efficiency rating: Very good (88%)

Data was distributed by:-
k-point (7-way); efficiency rating: Very good (88%)