 | Materials Studio CASTEP version 2023            |
 | Ab Initio Total Energy Program                  |
 | Authors:                                        |
 | M. Segall, M. Probert, C. Pickard, P. Hasnip,   |
 | S. Clark, K. Refson, J. R. Yates, M. Payne      |
 | Contributors:                                   |
 | P. Lindan, P. Haynes, J. White, V. Milman,      |
 | N. Govind, M. Gibson, P. Tulip, V. Cocula,      |
 | B. Montanari, D. Quigley, M. Glover,            |
 | L. Bernasconi, A. Perlov, M. Plummer,           |
 | E. McNellis, J. Meyer, J. Gale, D. Jochym       |
 | J. Aarons, B. Walker, R. Gillen, D. Jones       |
 | T. Green, I. J. Bush, C. J. Armstrong,          |
 | E. J. Higgins, E. L. Brown, M. S. McFly,        |
 | J. Wilkins, B-C. Shih, P. J. P. Byrne,          |
 | R. J. Maurer, J. C. Womack, J. Dziedzic,        |
 | A. Bartok-Partay, L. LeBlanc, T. K. Stenczel,   |
 | J. Kermode, S. Sturniolo, B. Shi, B. Durham     |
 | M. Evans, M. J. Smith                           |
 | Copyright (c) 2000 - 2022                       |
 | Please cite                                     |
 |     "First principles methods using CASTEP"     |
 |         Zeitschrift fuer Kristallographie       |
 |           220(5-6) pp. 567-570 (2005)           |
 | S. J. Clark, M. D. Segall, C. J. Pickard,       |
 | P. J. Hasnip, M. J. Probert, K. Refson,         |
 | M. C. Payne                                     |
 |       in all publications arising from          |
 |              your use of CASTEP                 |

 This version was compiled for x86_64-windows-msvc2017 on Oct 26 2022
 Code version:    fdad7da
 Intel(R) Math Kernel Library Version 2019.0.4
 Fundamental constants values: CODATA 2018

 Atomic calculation performed for Si: 1s2 2s2 2p6 3s2 3p2

 Converged in 54 iterations to an ae energy of -7886.857 eV

 Identity difference: 1.35E-04

   | Pseudopotential Report - Date of generation 19-03-2024   |
   | Element: Si Ionic charge:  4.00 Level of theory: PBE     |
   | Atomic Solver: Koelling-Harmon                           |
   |               Reference Electronic Structure             |
   |         Orbital         Occupation         Energy        |
   |            3s              2.000           -0.397        |
   |            3p              2.000           -0.150        |
   |                 Pseudopotential Definition               |
   |        Beta     l      e      Rc     scheme   norm       |
   |          1      0   -0.397   1.797     qc      0         |
   |          2      0    0.250   1.797     qc      0         |
   |          3      1   -0.150   1.797     qc      0         |
   |          4      1    0.250   1.797     qc      0         |
   |          5      2    0.000   1.797     qc      0         |
   |          6      2    0.250   1.797     qc      0         |
   |         loc     3    0.000   1.797     pn      0         |
   | Augmentation charge Rinner = 1.255                       |
   | Partial core correction Rc = 1.255                       |
   | "3|1.8|3.6|5|7|30UU:31UU:32UU[]"                         |
   |      Author: Chris J. Pickard, Cambridge University      |

 Doing a self consistent calculation for the test configuration

 Atomic calculation performed for Si: 1s2 2s2 2p6 3s2 3p2

 Converged in 54 iterations to an ae energy of -7886.857 eV

 AE eigenvalue nl 10 =      -65.63192903
 AE eigenvalue nl 20 =       -5.12654326
 AE eigenvalue nl 21 =       -3.51173659
 AE eigenvalue nl 30 =       -0.39736430
 AE eigenvalue nl 31 =       -0.14998156
 PS eigenvalue nl 30 =       -0.39734684
 PS eigenvalue nl 31 =       -0.14996575
 Maximum eigenvalue error:   1.75E-05

 Derived cutoff energies: C=   1 M=   4 F=   4 E=   6

 Checking for ghost states up to   1.41091 Ha

 No Ghost States Identified

 Pseudo atomic calculation performed for Si 3s2 3p2

 Converged in 15 iterations to a total energy of -164.8513 eV
 Calculation parallelised over 16 processes.
 Data is distributed by G-vector(4-way) and k-point(4-way)

 ************************************ Title ************************************
 CASTEP calculation from BIOVIA Materials Studio 2023

 ***************************** General Parameters ******************************

 output verbosity                               : normal  (1)
 write checkpoint data to                       : Si__2_.check
 type of calculation                            : molecular dynamics
 stress calculation                             : on
 density difference calculation                 : off
 electron localisation func (ELF) calculation   : off
 Hirshfeld analysis                             : on
 polarisation (Berry phase) analysis            : off
 molecular orbital projected DOS                : off
 deltaSCF calculation                           : off
 unlimited duration calculation
 timing information                             : on
 write extra output files                       : on
 write final potential to formatted file        : off
 write final density to formatted file          : off
 write BibTeX reference list                    : on
 write OTFG pseudopotential files               : on
 write electrostatic potential file             : on
 write bands file                               : on
 checkpoint writing                             : both castep_bin and check files

 output         length unit                     : A
 output           mass unit                     : amu
 output           time unit                     : ps
 output         charge unit                     : e
 output           spin unit                     : hbar/2
 output         energy unit                     : eV
 output          force unit                     : eV/A
 output       velocity unit                     : A/ps
 output       pressure unit                     : GPa
 output     inv_length unit                     : 1/A
 output      frequency unit                     : cm-1
 output force constant unit                     : eV/A**2
 output         volume unit                     : A**3
 output   IR intensity unit                     : (D/A)**2/amu
 output         dipole unit                     : D
 output         efield unit                     : eV/A/e
 output        entropy unit                     : J/mol/K
 output    efield chi2 unit                     : pm/V

 wavefunctions paging                           : none
 random number generator seed                   :  100858060
 data distribution                              : optimal for this architecture

 *********************** Exchange-Correlation Parameters ***********************

 using functional                               : Perdew Burke Ernzerhof
 relativistic treatment                         : Koelling-Harmon
 DFT+D: Semi-empirical dispersion correction    : off

 ************************* Pseudopotential Parameters **************************

 pseudopotential representation                 : reciprocal space
 <beta|phi> representation                      : reciprocal space
 spin-orbit coupling                            : off

 **************************** Basis Set Parameters *****************************

 plane wave basis set cut-off                   :   136.1000   eV
 size of standard grid                          :     1.5000
 size of   fine   gmax                          :     8.9652   1/A
 largest prime factor in FFT                    :          5
 finite basis set correction                    : automatic
 number of sample energies                      :          3
           sample  spacing                      :     5.0000   eV

 **************************** Electronic Parameters ****************************

 number of  electrons                           :  32.00
 net charge of system                           :  0.000
 treating system as non-spin-polarized
 number of bands                                :         16

 ********************* Electronic Minimization Parameters **********************

 Method: Treating system as non-metallic,
         and number of  SD  steps               :          1
         and number of  CG  steps               :          4

 total energy / atom convergence tol.           : 0.2000E-05   eV
 eigen-energy convergence tolerance             : 0.1000E-05   eV
 max force / atom convergence tol.              : ignored
 convergence tolerance window                   :          3   cycles
 max. number of SCF cycles                      :        100
 periodic dipole correction                     : NONE

 ************************** Density Mixing Parameters **************************

 density-mixing scheme                          : Pulay
 max. length of mixing history                  :         20
 charge density mixing amplitude                : 0.5000
 cut-off energy for mixing                      :  136.1       eV
 charge density mixing g-vector                 :  1.500       1/A

 *********************** Population Analysis Parameters ************************

 Population analysis with cutoff                :  3.000       A
 Population analysis output                     : summary and pdos components

 ************************ Molecular Dynamics Parameters ************************

 ensemble                                       : NVT
 temperature                                    :  400.0       K
 using                                          : Langevin thermostat
 with characteristic ionic time                 : 0.1000       ps
 path integral MD                               : OFF
 time step                                      : 0.5000E-02   ps
 number of MD steps                             :         50
 ab initio properties sampled every             :          0   MD steps
 enhanced equilibration method                  : NONE
 using XL-BOMD                                  :  for wavefunctions and charge density
 with XL-BOMD history                           :          0
 backup results every                           :          5   steps

 MD SCF energy / atom convergence tol.          : 0.2000E-05   eV
 MD SCF eigenenergies tolerance                 : 0.1000E-05   eV
 MD SCF convergence tolerance window            :          3   cycles
 write MD trajectory file                       : on

                                      Unit Cell
        Real Lattice(A)                      Reciprocal Lattice(1/A)
     5.4307000     0.0000000     0.0000000        1.156975216   0.000000000   0.000000000
     0.0000000     5.4307000     0.0000000        0.000000000   1.156975216   0.000000000
     0.0000000     0.0000000     5.4307000        0.000000000   0.000000000   1.156975216

                       Lattice parameters(A)       Cell Angles
                    a =      5.430700          alpha =   90.000000
                    b =      5.430700          beta  =   90.000000
                    c =      5.430700          gamma =   90.000000

                       Current cell volume =           160.164933       A**3
                                   density =             1.402829   AMU/A**3
                                           =             2.329452     g/cm^3

                                     Cell Contents
                         Total number of ions in cell =    8
                      Total number of species in cell =    1
                        Max number of any one species =    8

            x  Element    Atom        Fractional coordinates of atoms  x
            x            Number           u          v          w      x
            x  Si           1         0.000000   0.000000   0.000000   x
            x  Si           2         0.000000   0.500000   0.500000   x
            x  Si           3         0.500000   0.000000   0.500000   x
            x  Si           4         0.500000   0.500000   0.000000   x
            x  Si           5         0.750000   0.250000   0.750000   x
            x  Si           6         0.250000   0.250000   0.250000   x
            x  Si           7         0.250000   0.750000   0.750000   x
            x  Si           8         0.750000   0.750000   0.250000   x

                         No user defined ionic velocities

                                   Details of Species

                               Mass of species in AMU
                                    Si   28.0849991

                          Electric Quadrupole Moment (Barn)
                                    Si    1.0000000 No Isotope Defined

                          Files used for pseudopotentials:
                                    Si 3|1.8|3.6|5|7|30UU:31UU:32UU[]

                              k-Points For BZ Sampling
                       MP grid size for SCF calculation is  2  2  2
                            with an offset of   0.000  0.000  0.000
                       Number of kpoints used =             4

                               Symmetry and Constraints

                      Cell is a supercell containing 4 primitive cells
                      Maximum deviation from symmetry =  0.00000         ANG

                      Number of symmetry operations   =           1
         There are no ionic constraints specified or generated for this cell
                      Point group of crystal =     1: C1, 1, 1
                      Space group of crystal =   227: Fd-3m, F 4d 2 3 -1d

             Set iprint > 1 for details on symmetry rotations/translations

                         Centre of mass is NOT constrained

                         Number of cell constraints= 5
                         Cell constraints are:  1 1 1 0 0 0

                         External pressure/stress (GPa)
                          0.00000   0.00000   0.00000
                                    0.00000   0.00000
                                              0.00000

Final energy =  -1383.242853687     eV
(energy not corrected for finite basis set)

Calculating total energy with cut-off of  131.100 eV.
------------------------------------------------------------------------ <-- SCF
SCF loop      Energy                           Energy gain       Timer   <-- SCF
                                               per atom          (sec)   <-- SCF
------------------------------------------------------------------------ <-- SCF
Initial  -1.38322329E+003                                          4.56  <-- SCF
      1  -1.38336807E+003                    1.80970684E-002       4.58  <-- SCF
      2  -1.38336820E+003                    1.68138397E-005       4.59  <-- SCF
      3  -1.38336834E+003                    1.74629972E-005       4.62  <-- SCF
      4  -1.38336834E+003                   -9.27180148E-008       4.64  <-- SCF
      5  -1.38336834E+003                    3.25436508E-008       4.64  <-- SCF
------------------------------------------------------------------------ <-- SCF

[...]

Calculating total energy with cut-off of  136.100 eV.
------------------------------------------------------------------------ <-- SCF
SCF loop      Energy                           Energy gain       Timer   <-- SCF
                                               per atom          (sec)   <-- SCF
------------------------------------------------------------------------ <-- SCF
Initial  -1.38336834E+003                                          4.66  <-- SCF
      1  -1.38353368E+003                    2.06669367E-002       4.66  <-- SCF
      2  -1.38353390E+003                    2.73683641E-005       4.67  <-- SCF
      3  -1.38353402E+003                    1.46727821E-005       4.69  <-- SCF
      4  -1.38353404E+003                    3.28816299E-006       4.70  <-- SCF
      5  -1.38353404E+003                    3.14022662E-008       4.72  <-- SCF
      6  -1.38353404E+003                    1.63157397E-008       4.72  <-- SCF
------------------------------------------------------------------------ <-- SCF

[...]

 For future reference: finite basis dEtot/dlog(Ecut) =      -4.742801eV
 Total energy corrected for finite basis set =   -1383.525601 eV

 WARNING - MD ensemble=NVT so fixing cell parameters

 Starting MD

 ************************************** Forces **************************************
 *                           Cartesian components (eV/A)                            *
 *                         x                    y                    z              *
 * Si              1      0.00000              0.00000             -0.00000         *
 * Si              2      0.00000             -0.00000              0.00000         *
 * Si              3     -0.00000             -0.00000              0.00000         *
 * Si              4     -0.00000              0.00000             -0.00000         *
 * Si              5     -0.00000              0.00000             -0.00000         *
 * Si              6      0.00000              0.00000              0.00000         *
 * Si              7      0.00000             -0.00000             -0.00000         *
 * Si              8     -0.00000             -0.00000              0.00000         *

            x                                               MD Data:     x
            x              time :      0.000000                   ps     x
            x   Potential Energy:  -1383.525601                   eV     x
            x   Kinetic   Energy:      0.413632                   eV     x
            x   Total     Energy:  -1383.111969                   eV     x
            x   Hamilt    Energy:  -1383.111969                   eV     x
            x        Temperature:    400.000000                    K     x

 Starting MD iteration          1 ...

                                     Cell Contents

[...]

------------------------------------------------------------------------ <-- SCF
SCF loop      Energy                           Energy gain       Timer   <-- SCF
                                               per atom          (sec)   <-- SCF
------------------------------------------------------------------------ <-- SCF
Initial  -1.38336705E+003                                          4.75  <-- SCF
      1  -1.38370782E+003                    4.25969595E-002       4.75  <-- SCF
      2  -1.38371338E+003                    6.94565838E-004       4.77  <-- SCF
      3  -1.38357251E+003                   -1.76083270E-002       4.78  <-- SCF
      4  -1.38354454E+003                   -3.49623907E-003       4.78  <-- SCF
      5  -1.38354545E+003                    1.12807782E-004       4.81  <-- SCF
      6  -1.38354545E+003                    8.55362722E-007       4.81  <-- SCF
      7  -1.38354546E+003                    1.30767366E-006       4.83  <-- SCF
      8  -1.38354546E+003                    1.52502830E-007       4.84  <-- SCF
------------------------------------------------------------------------ <-- SCF

[...]

 ... finished MD iteration          1

[...]

Writing analysis data to Si__2_.castep_bin

Writing model to Si__2_.check

[...]

 ... finished MD iteration         49

 Starting MD iteration         50 ...

                                     Cell Contents

            x  Element    Atom        Fractional coordinates of atoms    x
            x            Number           u          v          w        x
            x   Si         1          0.013160   0.046390  -0.012188     x
            x   Si         2          0.007546   0.546043   0.472251     x
            x   Si         3          0.530991   0.018625   0.489380     x
            x   Si         4          0.498535   0.559596  -0.018526     x
            x   Si         5          0.762332   0.307022   0.721253     x
            x   Si         6          0.260442   0.298421   0.239017     x
            x   Si         7          0.257835   0.780774   0.741263     x
            x   Si         8          0.762860   0.810259   0.235999     x

------------------------------------------------------------------------ <-- SCF
SCF loop      Energy                           Energy gain       Timer   <-- SCF
                                               per atom          (sec)   <-- SCF
------------------------------------------------------------------------ <-- SCF
Initial  -1.36517471E+003                                         10.97  <-- SCF
      1  -1.38329982E+003                    2.26563830E+000      10.97  <-- SCF
      2  -1.38444678E+003                    1.43370421E-001      10.98  <-- SCF
      3  -1.38347208E+003                   -1.21837243E-001      11.00  <-- SCF
      4  -1.38326819E+003                   -2.54862401E-002      11.02  <-- SCF
      5  -1.38327224E+003                    5.06253041E-004      11.02  <-- SCF
      6  -1.38327240E+003                    1.88367322E-005      11.02  <-- SCF
      7  -1.38327248E+003                    1.04812633E-005      11.03  <-- SCF
      8  -1.38327249E+003                    1.24311962E-006      11.05  <-- SCF
      9  -1.38327249E+003                    3.76068639E-007      11.05  <-- SCF
------------------------------------------------------------------------ <-- SCF

Final energy =  -1383.272492060     eV
(energy not corrected for finite basis set)

[...]

            x                                               MD Data:     x
            x              time :      0.250000                   ps     x
            x   Potential Energy:  -1383.264052                   eV     x
            x   Kinetic   Energy:      0.938270                   eV     x
            x   Total     Energy:  -1382.325781                   eV     x
            x   Hamilt    Energy:  -1382.325781                   eV     x
            x        Temperature:    907.347703                    K     x

[...]

 ... finished MD iteration         50
 Finished MD

  *** There were at least     1 warnings during this run ***
  *** => please check the whole of this file carefully!  ***

[...]

 ************************************** Forces **************************************
 *                           Cartesian components (eV/A)                            *
 *                         x                    y                    z              *
 * Si              1     -1.16268              3.08297             -1.29180         *
 * Si              2      1.95056              1.82994              1.52302         *
 * Si              3     -1.89203              0.24265             -0.56688         *
 * Si              4      1.72671             -0.33396              2.28702         *
 * Si              5     -0.91587             -1.27372              1.25272         *
 * Si              6      0.54598             -1.21405              0.16202         *
 * Si              7     -0.72816              0.92724             -1.89615         *
 * Si              8      0.56031             -0.60451             -1.87461         *

 ***************** Stress Tensor *****************
 *          Cartesian components (GPa)           *
 *             x             y             z     *
 *  x    -58.632203      0.937382      1.043467  *
 *  y      0.937382    -56.998916     -0.295894  *
 *  z      1.043467     -0.295894    -53.410586  *
 *  Pressure:   56.3472                          *

 Pseudo atomic calculation performed for Si 3s2 3p2

 Converged in 15 iterations to a total energy of -164.8513 eV
Charge spilling parameter for spin component 1 = 0.87%

            Orbital Populations
     Ion    Atom   Orbital             Charge
     Si     1      S                    1.360
     Si     1      Px                   0.871
     Si     1      Py                   0.887
     Si     1      Pz                   0.876
     Si     2      S                    1.340
     Si     2      Px                   0.878
     Si     2      Py                   0.886
     Si     2      Pz                   0.896
     Si     3      S                    1.349
     Si     3      Px                   0.899
     Si     3      Py                   0.890
     Si     3      Pz                   0.874
     Si     4      S                    1.350
     Si     4      Px                   0.881
     Si     4      Py                   0.868
     Si     4      Pz                   0.892
     Si     5      S                    1.364
     Si     5      Px                   0.869
     Si     5      Py                   0.874
     Si     5      Pz                   0.886
     Si     6      S                    1.367
     Si     6      Px                   0.876
     Si     6      Py                   0.895
     Si     6      Pz                   0.869
     Si     7      S                    1.344
     Si     7      Px                   0.884
     Si     7      Py                   0.882
     Si     7      Pz                   0.887
     Si     8      S                    1.331
     Si     8      Px                   0.899
     Si     8      Py                   0.874
     Si     8      Pz                   0.902
                           Total:      32.000

     Atomic Populations (Mulliken)
Species          Ion     s       p       d       f      Total   Charge (e)
  Si              1     1.360   2.634   0.000   0.000   3.994     0.006
  Si              2     1.340   2.660   0.000   0.000   4.001    -0.001
  Si              3     1.349   2.664   0.000   0.000   4.013    -0.013
  Si              4     1.350   2.641   0.000   0.000   3.991     0.009
  Si              5     1.364   2.629   0.000   0.000   3.993     0.007
  Si              6     1.367   2.639   0.000   0.000   4.006    -0.006
  Si              7     1.344   2.653   0.000   0.000   3.996     0.004
  Si              8     1.331   2.675   0.000   0.000   4.007    -0.007

                 Bond                   Population      Length (A)
              Si 3 -- Si 8                   0.80        2.18164
              Si 4 -- Si 7                   0.79        2.20300
              Si 2 -- Si 5                   0.77        2.29933
              Si 2 -- Si 6                   0.77        2.30195
              Si 1 -- Si 8                   0.76        2.30408
              Si 2 -- Si 8                   0.75        2.33896
              Si 1 -- Si 6                   0.75        2.35327
              Si 2 -- Si 7                   0.74        2.36787
              Si 3 -- Si 5                   0.74        2.37003
              Si 1 -- Si 7                   0.74        2.37468
              Si 4 -- Si 6                   0.74        2.37483
              Si 3 -- Si 7                   0.74        2.39587
              Si 4 -- Si 8                   0.73        2.41335
              Si 4 -- Si 5                   0.73        2.43534
              Si 1 -- Si 5                   0.72        2.44018
              Si 3 -- Si 6                   0.70        2.51321

     Hirshfeld Analysis
Species   Ion     Hirshfeld Charge (e)
  Si       1                -0.00
  Si       2                -0.00
  Si       3                -0.01
  Si       4                -0.00
  Si       5                 0.00
  Si       6                -0.00
  Si       7                 0.00
  Si       8                -0.00

Writing analysis data to Si__2_.castep_bin

Writing model to Si__2_.check

 A BibTeX formatted list of references used in this run has been written to
 Si__2_.bib

Initialisation time =      4.41 s
Calculation time    =      6.94 s
Finalisation time   =      0.02 s
Total time          =     11.36 s

Overall parallel efficiency rating: Terrible (32%)

Data was distributed by:-
G-vector (4-way); efficiency rating: Poor (40%)
k-point (4-way); efficiency rating: Mediocre (56%)

Parallel notes:
1) Calculation only took 11.3 s, so efficiency estimates may be inaccurate.